RT is False
Default write of storage_offers_DA.csv just to have a file (but constraint should be inactive)
Reading model...
...model read.
creating competitive generators file...
...competitive generators recorded.
Loading data...
.. day-ahead data with real-time VRE data read.
Compiling instance...
...instance created.
Creating Offer Mitigation (model will solve as dispatch if TRUE)...
NOTE: storage offers will not be mitigated
...storage offer mitigation file created
Converting model to MPEC...
...converted
NOTE: initial MIP solve with only storage competitive to get feasible solution
Solving...

Welcome to IBM(R) ILOG(R) CPLEX(R) Interactive Optimizer 12.9.0.0
  with Simplex, Mixed Integer & Barrier Optimizers
5725-A06 5725-A29 5724-Y48 5724-Y49 5724-Y54 5724-Y55 5655-Y21
Copyright IBM Corp. 1988, 2019.  All Rights Reserved.

Type 'help' for a list of available commands.
Type 'help' followed by a command name for more
information on commands.

CPLEX> Logfile 'cplex.log' closed.
Logfile 'C:\Users\llavin\Desktop\test826\logs\tmph0ntf_ac.cplex.log' open.
CPLEX> New value for parallel optimization mode: -1
CPLEX> New value for emphasis for MIP optimization: 1
CPLEX> New value for mixed integer optimality gap tolerance: 0.01
CPLEX> New value for integrality tolerance: 1e-12
CPLEX> New value for deterministic time limit in ticks: 75000
CPLEX> Problem 'C:\Users\llavin\Desktop\test826\logs\tmp4ht_sjga.pyomo.lp' read.
Read time = 0.25 sec. (13.92 ticks)
CPLEX> Problem name         : C:\Users\llavin\Desktop\test826\logs\tmp4ht_sjga.pyomo.lp
Objective sense      : Maximize
Variables            :   53809  [Nneg: 1,  Box: 22004,  Free: 4464,
                                 Binary: 27340]
Objective nonzeros   :    8980
Linear constraints   :  123253  [Less: 41346,  Greater: 59096,  Equal: 22811]
  Nonzeros           :  293289
  RHS nonzeros       :   67491

Variables            : Min LB: -5000.000        Max UB: 1000000.       
Objective nonzeros   : Min   : 0.1083333        Max   : 741.5750       
Linear constraints   :
  Nonzeros           : Min   : 0.1083333        Max   : 1000000.       
  RHS nonzeros       : Min   : 0.1083333        Max   : 1000000.       
CPLEX> CPXPARAM_Parallel                                -1
CPXPARAM_Emphasis_MIP                            1
CPXPARAM_DetTimeLimit                            75000
CPXPARAM_MIP_Tolerances_MIPGap                   0.01
CPXPARAM_MIP_Tolerances_Integrality              9.9999999999999998e-13
Tried aggregator 4 times.
MIP Presolve eliminated 88645 rows and 18901 columns.
MIP Presolve added 3403 rows and 0 columns.
MIP Presolve modified 24902 coefficients.
Aggregator did 13012 substitutions.
Reduced MIP has 24999 rows, 21340 columns, and 71332 nonzeros.
Reduced MIP has 8426 binaries, 0 generals, 0 SOSs, and 0 indicators.
Presolve time = 0.33 sec. (193.75 ticks)
Probing fixed 380 vars, tightened 3903 bounds.
Probing time = 0.06 sec. (18.80 ticks)
Tried aggregator 2 times.
MIP Presolve eliminated 863 rows and 765 columns.
MIP Presolve modified 3041 coefficients.
Aggregator did 34 substitutions.
Reduced MIP has 24102 rows, 20541 columns, and 68734 nonzeros.
Reduced MIP has 8044 binaries, 0 generals, 0 SOSs, and 0 indicators.
Presolve time = 0.11 sec. (89.73 ticks)
Probing fixed 0 vars, tightened 307 bounds.
Probing time = 0.14 sec. (23.23 ticks)
Clique table members: 45303.
MIP emphasis: integer feasibility.
MIP search method: dynamic search.
Parallel mode: opportunistic, using up to 32 threads.
Root relaxation solution time = 0.44 sec. (634.28 ticks)

        Nodes                                         Cuts/
   Node  Left     Objective  IInf  Best Integer    Best Bound    ItCnt     Gap

      0     0     5754.5481   156                   5754.5481     5128         
      0     0     5754.5481    19                    Cuts: 56     5148         
      0     0     5754.5481    19                   Covers: 1     5149         
      0     0     5754.5481    18                   Covers: 1     5151         
      0     2     5754.5481    18                     Cuts: 3     5151         
Elapsed time = 4.42 sec. (1943.04 ticks, tree = 0.02 MB, solutions = 0)
    577   117   -24579.5511    19                   5734.7922     8285         
   1111   235     5723.6684   178                   5734.7922    19641         
*  1270   592      integral     0     5714.1060     5734.7922    33614    0.36%
   1615   745     2612.1129   135     5714.1060     5734.7922    37055    0.36%
   1870   256     5714.1060   192     5714.1060     5734.7922    28421    0.36%

Cover cuts applied:  4
Implied bound cuts applied:  8
Flow cuts applied:  41
Mixed integer rounding cuts applied:  1
Gomory fractional cuts applied:  15

Root node processing (before b&c):
  Real time             =    2.66 sec. (1896.07 ticks)
Parallel b&c, 32 threads:
  Real time             =    5.64 sec. (1476.79 ticks)
  Sync time (average)   =    0.62 sec.
  Wait time (average)   =    0.00 sec.
                          ------------
Total (root+branch&cut) =    8.30 sec. (3372.87 ticks)

Solution pool: 1 solution saved.

MIP - Integer optimal, tolerance (0.01/1e-06):  Objective =  5.7141059574e+03
Current MIP best bound =  5.7236684431e+03 (gap = 9.56249, 0.17%)
Solution time =    8.33 sec.  Iterations = 58768  Nodes = 1872 (20)
Deterministic time = 3373.02 ticks  (405.02 ticks/sec)

CPLEX> Incumbent solution written to file 'C:\Users\llavin\Desktop\test826\logs\tmpntiandzz.cplex.sol'.
CPLEX> NOTE: no warmstart specified for MIP iteration, default behavior is true
NOTE: resolving with all competitive generators using storage-only solution to warmstart
Solving...

Welcome to IBM(R) ILOG(R) CPLEX(R) Interactive Optimizer 12.9.0.0
  with Simplex, Mixed Integer & Barrier Optimizers
5725-A06 5725-A29 5724-Y48 5724-Y49 5724-Y54 5724-Y55 5655-Y21
Copyright IBM Corp. 1988, 2019.  All Rights Reserved.

Type 'help' for a list of available commands.
Type 'help' followed by a command name for more
information on commands.

CPLEX> Logfile 'cplex.log' closed.
Logfile 'C:\Users\llavin\Desktop\test826\logs\tmp2k271uul.cplex.log' open.
CPLEX> New value for parallel optimization mode: -1
CPLEX> New value for emphasis for MIP optimization: 1
CPLEX> New value for mixed integer optimality gap tolerance: 0.01
CPLEX> New value for integrality tolerance: 1e-12
CPLEX> New value for deterministic time limit in ticks: 75000
CPLEX> Problem 'C:\Users\llavin\Desktop\test826\logs\tmp57gu_cco.pyomo.lp' read.
Read time = 0.24 sec. (13.94 ticks)
CPLEX> MIP start file 'C:\Users\llavin\Desktop\test826\logs\tmpilepct_3.cplex.mst' read.
CPLEX> Problem name         : C:\Users\llavin\Desktop\test826\logs\tmp57gu_cco.pyomo.lp
Objective sense      : Maximize
Variables            :   54529  [Nneg: 1,  Box: 22724,  Free: 4464,
                                 Binary: 27340]
Objective nonzeros   :    9676
Linear constraints   :  123253  [Less: 41346,  Greater: 59096,  Equal: 22811]
  Nonzeros           :  293289
  RHS nonzeros       :   67491

Variables            : Min LB: -5000.000        Max UB: 1000000.       
Objective nonzeros   : Min   : 0.1083333        Max   : 741.5750       
Linear constraints   :
  Nonzeros           : Min   : 0.1083333        Max   : 1000000.       
  RHS nonzeros       : Min   : 0.1083333        Max   : 1000000.       
CPLEX> CPXPARAM_Parallel                                -1
CPXPARAM_Emphasis_MIP                            1
CPXPARAM_DetTimeLimit                            75000
CPXPARAM_MIP_Tolerances_MIPGap                   0.01
CPXPARAM_MIP_Tolerances_Integrality              9.9999999999999998e-13
Warning:  No solution found from 1 MIP starts.
Retaining values of one MIP start for possible repair.
Tried aggregator 4 times.
MIP Presolve eliminated 88645 rows and 19621 columns.
MIP Presolve added 3403 rows and 0 columns.
MIP Presolve modified 24902 coefficients.
Aggregator did 13012 substitutions.
Reduced MIP has 24999 rows, 21340 columns, and 71332 nonzeros.
Reduced MIP has 8426 binaries, 0 generals, 0 SOSs, and 0 indicators.
Presolve time = 0.31 sec. (194.16 ticks)
Probing fixed 380 vars, tightened 3903 bounds.
Probing time = 0.08 sec. (18.80 ticks)
Tried aggregator 2 times.
MIP Presolve eliminated 863 rows and 765 columns.
MIP Presolve modified 3041 coefficients.
Aggregator did 34 substitutions.
Reduced MIP has 24102 rows, 20541 columns, and 68734 nonzeros.
Reduced MIP has 8044 binaries, 0 generals, 0 SOSs, and 0 indicators.
Presolve time = 0.11 sec. (89.73 ticks)
Probing fixed 0 vars, tightened 307 bounds.
Probing time = 0.14 sec. (23.23 ticks)
Clique table members: 45303.
MIP emphasis: integer feasibility.
MIP search method: dynamic search.
Parallel mode: opportunistic, using up to 32 threads.
Root relaxation solution time = 0.51 sec. (766.27 ticks)

        Nodes                                         Cuts/
   Node  Left     Objective  IInf  Best Integer    Best Bound    ItCnt     Gap

      0     0   154948.5268   297                 154948.5268     6204         
      0     0   153515.2342   217                   Cuts: 203     6435         
      0     0   152368.2269   189                   Cuts: 112     6544         
      0     0   152087.2534   187                    Cuts: 36     6582         
Repair heuristic found nothing.
      0    21   124818.0084   158                    Cuts: 14     6829         
Elapsed time = 4.38 sec. (2061.33 ticks, tree = 0.02 MB, solutions = 0)
    575   487   135617.6427   145                 147882.4184    14031         
   1155   855   120606.5431   131                 147882.4184    19625         
   1737  1572   100596.7288   122                 147882.4184    32653         
   2331  1708    84684.9737   115                 147882.4184    36095         
   3027  2306    26098.5684    89                 147882.4184    49106         
   3727  2517    infeasible                       147882.4184    52486         
   4317  3328  -278132.0823    74                 147882.4184    68129         
   4895  3669    47499.8926    54                 147882.4184    74687         
   5477  4112   -56384.9342    74                 147882.4184    89491         
   7872  5763   101856.5169   120                 147882.4184   139297         
Elapsed time = 21.70 sec. (5164.17 ticks, tree = 41.86 MB, solutions = 0)
  10452  7771   143965.8866   132                 147882.4184   190939         
  12486  9970   116907.2288   151                 147882.4184   263962         
  14719 10652   131161.9137   154                 147882.4184   292159         
  16805 12654    27238.0183   190                 147882.4184   383037         
  19028 13820    infeasible                       147882.4184   437865         
  21132 16075    infeasible                       147882.4184   535385         
  23358 17410    infeasible                       147882.4184   605934         
  25546 18838    infeasible                       147882.4184   683898         
  27805 19500   -71692.3428   115                 147882.4184   720521         
  30199 22284   119345.8050   134                 147882.4184   840205         
Elapsed time = 70.39 sec. (14708.41 ticks, tree = 316.09 MB, solutions = 0)
  32313 23219    infeasible                       147882.4184   879196         
  34311 24428    88689.1899   120                 147882.4184   930016         
  34457 25853    infeasible                       147882.4184   999547         
  35986  1102    infeasible                       147882.4184  1023520         
  38633  2747   121976.7951   106                 147882.4184  1083380         
  41367  4631    84855.1542    62                 147882.4184  1146523         
  44395  6612   123440.8860   127                 147882.4184  1197712         
  47205  8422   111151.0500   135                 147882.4184  1258698         
  49885 10102   123963.8753   140                 147882.4184  1337195         
  51929 11483   106591.5760   152                 147882.4184  1405040         
Elapsed time = 120.63 sec. (25761.17 ticks, tree = 158.56 MB, solutions = 0)
  54176 11787   103421.6667   179                 147882.4184  1421438         
  57134 13671   107319.1720   159                 147882.4184  1510926         
  59741 14969    infeasible                       147882.4184  1574584         
  62361 15886    82140.4003   104                 147882.4184  1628730         
  65098 17111    83522.3165   114                 147882.4184  1690683         
  67824 18268    76429.2627    95                 147882.4184  1748961         
  70428 19535    67860.7890   134                 147882.4184  1814755         
  72977 20963    69842.2201    97                 147882.4184  1905324         
  75632 22311    79910.2654    81                 147882.4184  1984415         
  77902 23971    74398.7815   108                 147882.4184  2075673         
Elapsed time = 196.55 sec. (35300.12 ticks, tree = 237.08 MB, solutions = 0)
  80486 24898    66791.1308    82                 147882.4184  2126699         
  83069 25540    86479.9224   101                 147882.4184  2166597         
  85576 25730    43585.2371   113                 147882.4184  2181679         
  87753 29114    infeasible                       147882.4184  2376630         
  90082 28604    77592.8409    99                 147882.4184  2349680         
  92897 29366    54762.3775    95                 147882.4184  2387649         
  95657 30859    80227.9954   102                 147882.4184  2449600         
  98464 33272    58434.0915    80                 147882.4184  2537470         
 100555 33660    49524.6619    70                 147882.4184  2551619         
 101219 36263   137297.5187   199                 147389.4621  2659664         
Elapsed time = 207.20 sec. (46754.24 ticks, tree = 351.51 MB, solutions = 0)
 102949  1293   100320.8341    60                 147259.0641  2689421         
 104075  1856   107091.4033   161                 147259.0641  2710800         
 106071  2533    84444.7718   138                 147259.0641  2733117         
 107770  4381   -62917.4372   141                 147259.0641  2785256         
 108722  5022    79306.9031   168                 147259.0641  2812059         
 110604  5930    97443.8636   134                 147259.0641  2846959         
 112711  7877   114900.7243   149                 147259.0641  2911733         
 113881  8082   112584.3995   205                 147259.0641  2923391         
 115159  8612    92005.6435    86                 147259.0641  2949009         
 116547  9479   122628.1125   172                 147259.0641  2986813         
Elapsed time = 238.89 sec. (56294.34 ticks, tree = 128.50 MB, solutions = 0)
 118797 10214    86492.3102   107                 147259.0641  3016357         
 120631 11518   118089.5498   149                 147259.0641  3068190         
 121833 12641    74695.4962    41                 147259.0641  3113659         
 123071 13627    infeasible                       147259.0641  3160940         
 124416 14023   113121.8730   142                 147259.0641  3185578         
 126616 14200   113254.6778   115                 147259.0641  3194840         
 129167 15923   103317.7676   132                 147259.0641  3266849         
 130433 16449   108471.6008   106                 147259.0641  3284942         
 131631 17022   106458.5933   121                 147259.0641  3310237         
 132771 17713    infeasible                       147259.0641  3357347         
Elapsed time = 267.58 sec. (65836.97 ticks, tree = 188.46 MB, solutions = 0)
 133991 18786    79405.7841   132                 147259.0641  3444047         
 135749 18268    infeasible                       147259.0641  3405920         
 138339 18458   105298.3395   117                 147259.0641  3419347         
 140818 19910    96392.0340   122                 147259.0641  3514143         
 142370 21149    87294.7063    98                 147259.0641  3568113         
 143667 21234    72733.0995   132                 147259.0641  3572368         
 144998 22999    infeasible                       147259.0641  3670886         
 146242 23086    92680.6265   173                 147259.0641  3679331         
 147522 23080    93738.0689   127                 147259.0641  3676231         

GUB cover cuts applied:  1
Cover cuts applied:  30
Implied bound cuts applied:  4
Flow cuts applied:  160
Mixed integer rounding cuts applied:  10
Zero-half cuts applied:  3
Gomory fractional cuts applied:  6

Root node processing (before b&c):
  Real time             =    2.86 sec. (2015.10 ticks)
Parallel b&c, 32 threads:
  Real time             =  290.55 sec. (73003.43 ticks)
  Sync time (average)   =    3.38 sec.
  Wait time (average)   =    0.38 sec.
                          ------------
Total (root+branch&cut) =  293.41 sec. (75018.54 ticks)


MIP - Deterministic time limit exceeded, no integer solution.
Current MIP best bound =  1.4725906409e+05 (gap is infinite)
Solution time =  293.42 sec.  Iterations = 3796948  Nodes = 148022 (24964)
Deterministic time = 75018.69 ticks  (255.67 ticks/sec)

CPLEX> CPLEX Error  1217: No solution exists.
No file written.
CPLEX> gap is infinite, so writing 0
Exporting results... 
